\ENCODING=ISO-8859-1
\Problem name: IloCplex

Maximize
 obj1: 21 x1 + x2 + x3 + x4 + x5 + x6 + 20 x7 - 1.3804347826087 x8
       - 1.3804347826087 x9
Subject To
 c1: 13 x1 - x2 + 4 x7 + 9 x8 + 4 x9 + x10 <= 0
 c2: 5 x1 - x3 + x7 + 4 x8 + 5 x9 + x11 <= 0
 c3: 5 x1 - x4 + 9 x7 + 4 x8 + 5 x9 + x12 <= 0
 c4: 9 x1 - x5 + 6 x7 + 4 x8 + 9 x9 + x13 <= 0
 c5: 10 x1 - x6 + 7 x7 + 8 x8 + x9 + x14 <= 0
 c6: x7 + x8 + x9  = 1
Bounds
 -Inf <= x1 <= 0
End
